data/MCDM/NO_CORR/GEN_FROM_60/19_ITEMS_1000_GEN/K5019W05.KNP.mps
NAME          BLANK   
ROWS
 N  OBJROW
 L  R0000000
COLUMNS
    C0000000  OBJROW     -816.         R0000000  332.        
    C0000001  OBJROW     -651.         R0000000  150.        
    C0000002  OBJROW     -896.         R0000000  451.        
    C0000003  OBJROW     -70.          R0000000  115.        
    C0000004  OBJROW     -534.         R0000000  363.        
    C0000005  OBJROW     -465.         R0000000  134.        
    C0000006  OBJROW     -183.         R0000000  758.        
    C0000007  OBJROW     -362.         R0000000  797.        
    C0000008  OBJROW     -64.          R0000000  285.        
    C0000009  OBJROW     -568.         R0000000  795.        
    C0000010  OBJROW     -535.         R0000000  228.        
    C0000011  OBJROW     -471.         R0000000  622.        
    C0000012  OBJROW     -924.         R0000000  883.        
    C0000013  OBJROW     -981.         R0000000  852.        
    C0000014  OBJROW     -982.         R0000000  171.        
    C0000015  OBJROW     -79.          R0000000  563.        
    C0000016  OBJROW     -76.          R0000000  320.        
    C0000017  OBJROW     -94.          R0000000  746.        
    C0000018  OBJROW     -773.         R0000000  745.        
RHS
    RHS       R0000000  16539.      
BOUNDS
 BV BOUND     C0000000  1.          
 BV BOUND     C0000001  1.          
 BV BOUND     C0000002  1.          
 BV BOUND     C0000003  1.          
 BV BOUND     C0000004  1.          
 BV BOUND     C0000005  1.          
 BV BOUND     C0000006  1.          
 BV BOUND     C0000007  1.          
 BV BOUND     C0000008  1.          
 BV BOUND     C0000009  1.          
 BV BOUND     C0000010  1.          
 BV BOUND     C0000011  1.          
 BV BOUND     C0000012  1.          
 BV BOUND     C0000013  1.          
 BV BOUND     C0000014  1.          
 BV BOUND     C0000015  1.          
 BV BOUND     C0000016  1.          
 BV BOUND     C0000017  1.          
 BV BOUND     C0000018  1.          
ENDATA
