interdiction/MCDM/NO_CORR/GEN_FROM_60/19_ITEMS_1000_GEN/K5019W05.KNP.txt
N 19
M 20
LC 19
LC 20
LC 21
LC 22
LC 23
LC 24
LC 25
LC 26
LC 27
LC 28
LC 29
LC 30
LC 31
LC 32
LC 33
LC 34
LC 35
LC 36
LC 37
LR 1
LR 2
LR 3
LR 4
LR 5
LR 6
LR 7
LR 8
LR 9
LR 10
LR 11
LR 12
LR 13
LR 14
LR 15
LR 16
LR 17
LR 18
LR 19
LR 20
LO -816
LO -651
LO -896
LO -70
LO -534
LO -465
LO -183
LO -362
LO -64
LO -568
LO -535
LO -471
LO -924
LO -981
LO -982
LO -79
LO -76
LO -94
LO -773
OS 1
IC 954
IC 95
IC 349
IC 203
IC 563
IC 253
IC 6
IC 477
IC 167
IC 73
IC 479
IC 519
IC 412
IC 4
IC 727
IC 223
IC 420
IC 643
IC 360
IB 3464
